[Tab_AdminPlayerList]
AdminPlayerBan.Caption="Rechazar"
AdminPlayerBan.Hint="Rechazar a este jugador"
AdminPlayerKick.Caption="Expulsar"
AdminPlayerKick.Hint="Expulsar a este jugador"

[Browser_ServerListPageBuddy]
AddBuddyCaption="A—ADIR AMIGO"
RemoveBuddyCaption="QUITAR AMIGO"

[ServerBrowser]
MutantTypeName="Mutante"
InvasionTypeName="InvasiÛn"
LMSTypeName="⁄ltimo en pie"
MutantType="xJuego mutante"
InvasionType="InvasiÛn"
LMSType="x⁄ltimo en pie"
MyBRServerListPage.PageCaption="Carr. bomb."
MyBuddiesPage.PageCaption="Amigos"
MyCTFServerListPage.PageCaption="CLB"
MyCustomServerListPage.PageCaption="Perso."
MyDMServerListPage.PageCaption="CM"
MyDomServerListPage.PageCaption="Dom. doble"
MyFavoritesPage.PageCaption="Favoritos"
MyIRCPage.PageCaption="Chat"
MyLANPage.PageCaption="LAN"
MyMOTDPage.PageCaption="Noticias"
MyPrefsPage.PageCaption="Filtro"
MyTDMServerListPage.PageCaption="CM equipo"
ServerBrowserHeader.Caption="Explorador de servidores"

[Browser_ServerListPageBase]
AddFavoriteButton.Caption="A—ADIR FAVORITO"
BackButton.Caption="VOLVER"
JoinButton.Caption="UNIRSE"
RefreshButton.Caption="ACTUALIZAR LISTA"
SpectateButton.Caption="ASISTIR"

[AdminPlayerList]
ColumnHeadings=("Nombre de jugador","ID ˙nica","IP")

[Browser_BuddyList]
ColumnHeadings=("Nombre de amigo")

[Browser_IRC]
SystemLabel="Sistema"
LeaveChannelCaption="ABANDONAR CANAL"
LeavePrivateCaptionHead="CERR."
ChooseNewNickText="Escoge un nuevo apodo para char"
MyBackButton.Caption="VOLVER"
MyChangeNickButton.Caption="CAMBIAR APODO"

[Browser_MOTD]
VersionString="Ver."
MyBackButton.Caption="VOLVER"
MyRefreshButton.Caption="ACTUALIZAR"
MyUpgradeButton.Caption="MEJORAR"

[Browser_Page]
StartQueryString="Consultando servidor principal"
AuthFailString="Fallo al identificar"
ConnFailString="Error de conexiÛn: reintentando"
ConnTimeoutString="Fin de tiempo de conexiÛn"
QueryCompleteString="°Consulta completa!"
RefreshCompleteString="°ActualizaciÛn completa!"
ReadyString="Listo"

[Browser_PlayersList]
ColumnHeadings=("Nombre de jugador","Puntos","ID de estadÌsticas","Ping")

[Browser_Prefs]
ViewStatsStrings[0]="Cualquier servidor"
ViewStatsStrings[1]="Solo servidores de estadÌsticas"
ViewStatsStrings[2]="No servidores de estadÌsticas"
MutatorModeStrings[0]="Cualquier mut·geno"
MutatorModeStrings[1]="No mut·genos"
MutatorModeStrings[2]="Este mut·geno"
MutatorModeStrings[3]="No este mut·geno"
WeaponStayStrings[0]="Cualquier servidor"
WeaponStayStrings[1]="Solo servidores con permanencia de armas"
WeaponStayStrings[2]="No servidores con permanencia de armas"
TranslocatorStrings[0]="Cualquier servidor"
TranslocatorStrings[1]="Solo servidores con transportador"
TranslocatorStrings[2]="No servidores con transportador"
MyBackButton.Caption="VOLVER"
MyKeyButton.Caption="CLAVE DE ICONO"
FilterTitle.Caption="Opciones de filtro de servidor"
NoBotServersCheckBox.Caption="No servidores con bots"
NoEmptyCheckBox.Caption="No servidores vacÌos"
NoFullCheckBox.Caption="No servidores llenos"
NoPasswdCheckBox.Caption="Servidores sin contraseÒa"
OnlyStandardCheckBox.Caption="Solo servidores est·ndar"
MutatorModeCombo.Caption="Mut·geno"
StatsViewCombo.Caption="Servidores de estadÌsticas"
TranslocatorCombo.Caption="Transportador"
WeaponStayCombo.Caption="Permanencia de armas"
CustomQuery.Caption="Consulta personalizada"
MaxGamespeed.Caption="M·x."
MinGamespeed.Caption="Vel. juego mÌnima"

[Browser_RulesList]
TrueString="Activado"
FalseString="Desactivado"
ServerModeString="Modo servidor"
DedicatedString="Dedicado"
NonDedicatedString="No dedicado"
AdminNameString="Admin. Servidor"
AdminEmailString="Admin. Email"
PasswordString="Necesita contraseÒa"
GameStatsString="EstadÌsticas de UT2003"
GameSpeedString="Vel. juego"
MutatorString="Mut·geno"
BalanceTeamsString="Bots equilibran equipos"
PlayersBalanceTeamsString="Equipos equilibrados"
FriendlyFireString="Fuego amigo"
GoalScoreString="Tanteo"
TimeLimitString="LÌmite Tiempo"
MinPlayersString="MÌnimo jugadores (bots)"
TranslocatorString="Transportador"
WeaponStayString="Permanencia de armas"
ColumnHeadings=("Ajuste", "Valor")

[Browser_ServerListPageFavorites]
RemoveFavoriteCaption="QUITAR FAVORITO"
AddIPCaption="A—ADIR IP"
RePingCaption="RE-PING LISTA"

[Browser_ServerListPageMS]
QueryFinHead="°Consulta completada! Recibidos:"
QueryFinTail="Servidores"
PingRecvString="Haciendo ping a servidores"
MustUpgradeString="Mejora disponible. Actualiza p·gina de noticias."
RefreshFinHead="°Ping completo!"
RefreshFinMid="Servidores,"
RefreshFinTail="Jugadores"
RePingServersCaption="RE-PING LISTA"
RefreshCaption="ACTUALIZAR LISTA"

[Browser_ServersList]
IconDescriptions=("Con contraseÒa","EstadÌsticas activadas","⁄ltima versiÛn","Servidor de escucha","Instagib","Servidor est·ndar","UT Cl·sico")
ColumnHeadings=(,"Nombre de servidor","Mapa","Jug.","Ping")

[DefaultCrosshairs]
Crosshair=((FriendlyName="Cruz (1)"),(FriendlyName="Cruz (2)"),(FriendlyName="Cruz (3)"),(FriendlyName="Cruz (4)"),(FriendlyName="Cruz (5)"),(FriendlyName="Punto"),(FriendlyName="Puntero"),(FriendlyName="Triad (1)"),(FriendlyName="Triad (2)"),(FriendlyName="Triad (3)"),(FriendlyName="Corchete (1)"),(FriendlyName="Corchete (2)"),(FriendlyName="CÌrculo (1)"),(FriendlyName="CÌrculo (2)"))

[ExtendedConsole]
AddedCurrentHead="Servidor aÒadido"
AddedCurrentTail="°A favoritos!"
SMStateName[0]="Men˙ de di·logo"
SMStateName[1]="Chat de voz"
SMStateName[2]="Recibido"
SMStateName[3]="Fuego amigo"
SMStateName[4]="Orden"
SMStateName[5]="Otros"
SMStateName[6]="Burla"
SMStateName[7]="AnimaciÛn de burla"
SMStateName[8]="Seleccionar jugador"
SMChannelOptions[0]="Unirse"
SMChannelOptions[1]="Salir"
SMChannelOptions[2]="Hablar"
SMAllString="[TODOS]"
SMMoreString="[M¡S]"

[GUIController]
DesignModeHints=((Key=" Tecla",Description="                                DescripciÛn"),(Key=" (F1)",Description="                                Ver esta pantalla de ayuda"),(Key=" Ctrl + Alt + D",Description="                      Activa el modo diseÒo"),(Key=" Ctrl + Alt + E",Description="                      Activa el modo editor de propiedades"),(Key=" [Ctrl +] H",Description="                          Activa info activa/enfoque"),(Key=" [Ctrl +] I",Description="                          Activa modo interactivo"),(Key=" [Ctrl +] P",Description="                          Activa cadenas de men˙ propietario completo para activo/enfoque"),(Key=" [Ctrl +] C",Description="                          Copiar posiciÛn MovimientoControl al portapapeles"),(Key=" [Ctrl +] X",Description="                          Exportar MovimientoControl al portapapeles"),(Key=" [Ctrl +] U",Description="                          Actualizar ventana de propiedad en el diseÒador"),(Key=" [Ctrl +] Arriba/Abajo/Izquierda/Derecha",Description="         Reposicionar MovimientoControl usando las teclas de flecha"),(Key=" [Ctrl +] +/-",Description="                        Redimensionar MovimientoControl verticalmente"),(Key=" [Ctrl +] Num+/Num-",Description="                  Redimensionar componente seleccionado horizontalmente"),(Key=" [Ctrl +] WheelUp",Description="                    Fijar MovimientoControl a men˙ propietario MovimientoControl"),(Key=" [Ctrl +] WheenDown",Description="                  Establecer MovimientoControl a control enfoque de MovimientoControl"),(Key=" [(Ctrl + Alt) +] MouseX/Y+LMouse",Description="    Reposicionar MovimientoControl con el ratÛn"),(Key=" (Shift)",Description="                             Oculta todos los indicadores del modo diseÒo"),(Key=" (Ctrl + Alt)",Description="                        Ver cadena de enfoque"),(Key=" [Ctrl +] Tab",Description="                        Seleccionar nuevo MovimientoControl"),(Key=" [Ctrl +] LMouse",Description="                     Seleccionar nuevo MovimientoControl"))

[GUIQuestionPage]
ButtonNames=("Aceptar","Cancelar","Reintentar","Continuar","SÌ","No","Abortar","Ignorar")

[HudBTeamDeathMatch]
LinkEstablishedMessage="VÕNCULO ESTABLECIDO"

[HudBase]
InstructionFontName="UT2003Fonts.jFontMono800x600"
LevelActionLoading="CARGANDO..."
LevelActionPaused="PAUSA"
LevelActionFontName="UT2003Fonts.FontMedium"
WonMatchPostFix=" ha ganado el encuentro."
WaitingToSpawn="°Pulsa [Disparo] para unirte al encuentro!"
AtMenus="Pulsa [Esc] para cerrar este men˙"
YouveWonTheMatch="°Has ganado el encuentro!"
YouveLostTheMatch="Has perdido el encuentro."
NowViewing="VisiÛn desde"
ScoreText="Puntos"
InitialViewingString="Pulsa [disparo] para ver desde un jugador diferente."
ProgressFontName="UT2003Fonts.FontMedium"
FontArrayNames[0]="UT2003Fonts.FontEurostile37"
FontArrayNames[1]="UT2003Fonts.FontEurostile29"
FontArrayNames[2]="UT2003Fonts.FontEurostile24"
FontArrayNames[3]="UT2003Fonts.FontEurostile21"
FontArrayNames[4]="UT2003Fonts.jFontMedium800x600"
FontArrayNames[5]="UT2003Fonts.jFontMedium"
FontArrayNames[6]="UT2003Fonts.FontEurostile12"
FontArrayNames[7]="UT2003Fonts.jFontSmallText800x600"
FontArrayNames[8]="UT2003Fonts.FontSmallText"

[HudCTeamDeathMatch]
LinkEstablishedMessage="ENLACE ESTABLECIDO"

[IRCLink]
InvalidAddressText="Direc. serv. inv·l., interrndo."
ErrorBindingText="Error acceso pto. local, interrndo."
ResolveFailedText="Fallo al resolver dir. serv., interrndo."
ConnectedText="Conectado."
ConnectingToText="Conectando a"
TimeOutError="Exceso de tiempo al conectar a servidor"
InviteString="te invita a unirte"
NickInUseText="Apodo ya usado"
NickInvalidText="Apodo no v·lido"

[IRC_Page]
HasLeftText="se ha ido"
HasJoinedText="se ha unido"
WasKickedByText="ha sido expulsado por"
NowKnownAsText="ahora se llama"
QuitText="Salir"
SetsModeText="establece modo"
NewTopicText="TÛpico"

[IRC_System]
NotInAChannelText="°No est· en canal!"
KickedFromText="Fuiste expulsado de"
ByText="por"
IsAwayText="ausente"
ConnectText="CONECTAR"
DisconnectText="DESCONECTAR"
MyJoinChannelButton.Caption="UNIRSE AL CANAL"
MyRemoveChannelButton.Caption="ELIMINAR CANAL"
MyRemoveServerButton.Caption="ELIMINAR SERVIDOR"
MyChannelLabel.Caption="Canal"
MyServerLabel.Caption="Servidor"

[ScoreBoardDeathMatch]
RankText="RANGO"
PlayerText="JUGADOR"
PointsText="PUNTOS"
TimeText="TIEMPO:"
PingText="PING:"
PLText="P/L:"
DeathsText="MUERTES:"
AdminText="ADMIN"
NetText="RED"
FooterText="Tiempo total:"
MatchIDText="UT2003 estadÌsticas ID"
OutText="ELIMINADO"
OutFireText="   Est·s ELIMINADO. Dispara para ver a otros jugadores."
ReadyText="LISTO"
NotReadyText="NO LISTO"
SkillLevel[0]="NOVATO"
SkillLevel[1]="NORMAL"
SkillLevel[2]="EXPERTO"
SkillLevel[3]="VIRTUOSO"
SkillLevel[4]="ADEPTO"
SkillLevel[5]="MAESTRO"
SkillLevel[6]="INHUMANO"
SkillLevel[7]="SEMIDI”S"
MaxLives="VIDAS MAX:"
FragLimit="LÕMITE ABATIDOS:"
FPH="PPH"
GameType="JUEGO"
MapName=" en "
Restart="   Te han matado. °Pulsa disparo para reaparecer!"
Continue="°Pulsa [Fire] para continuar!"
Ended="°El encuentro ha terminado!"
TimeLimit="TIEMPO RESTANTE:"
Spacer=" "

[ScoreBoardTeamDeathMatch]
FragLimit="LIMITE DE PUNTUACI”N:"

[Tab_AudioSettings]
AudioModes[0]="Sonido 3D por software"
AudioModes[1]="Sonido 3D por hardware"
AudioModes[2]="Sonido 3D por hardware + EAX"
AudioModes[3]="Modo seguro"
VoiceModes[0]="Todos"
VoiceModes[1]="Sin auto-burla"
VoiceModes[2]="Sin burlas"
VoiceModes[3]="Ninguno"
AnnounceModes[0]="Ninguno"
AnnounceModes[1]="MÌnimos"
AnnounceModes[2]="Todos"
AudioEffectsVolumeLabel.Caption="Volumen de efectos"
AudioMusicVolumeLabel.Caption="Volumen de m˙sica"
AudioVoiceVolumeLabel.Caption="Volumen de comentarista"
AudioEffectsVolumeSlider.Hint="Cambia el volumen de todos los efectos de sonido del juego."
AudioMusicVolumeSlider.Hint="Cambia el volumen de la m˙sica de fondo."
AudioVoiceVolumeSlider.Hint="Cambia el volumen de todos los mensajes de voz."
AudioAutoTaunt.Caption="Auto-burla"
AudioAutoTaunt.Hint="Permite que tu jugador se burle autom·ticamente de los oponentes."
AudioLowDetail.Caption="Detalle de sonido bajo"
AudioLowDetail.Hint="Baja la calidad del sonido."
AudioMatureTaunts.Caption="Burlas para adultos"
AudioMatureTaunts.Hint="Activa comentarios fuera de tono."
AudioMessageBeep.Caption="Sonido de mensaje"
AudioMessageBeep.Hint="Activa un sonido al recibir un mensaje de texto de otros jugadores."
AudioReverseStereo.Caption="Invertir estÈreo"
AudioReverseStereo.Hint="Invierte los canales de sonido izquierdo y derecho."
AudioAnnounce.Caption="Comentarios"
AudioAnnounce.Hint="Establece la cantidad de comentarios durante el juego."
AudioAnnouncerPack.Caption="Voz de comentarista"
AudioAnnouncerPack.Hint="Selecciona el comentarista para el encuentro de esta noche."
AudioMode.Caption="Modo de sonido"
AudioMode.Hint="Cambio el modo del sistema de sonido."
AudioPlayVoices.Caption="Reproducir voces"
AudioPlayVoices.Hint="Define los tipos de mensajes de voz a reproducir."

[Tab_ControlSettings]
Bindings=((KeyLabel="Movimiento"),(KeyLabel="Adelante"),(KeyLabel="Atr·s"),(KeyLabel="Lateral a la izq."),(KeyLabel="Lateral a la dch."),(KeyLabel="Saltar"),(KeyLabel="Andar"),(KeyLabel="Agazaparse"),(KeyLabel="Activar despl. lateral"),(KeyLabel="Mirar"),(KeyLabel="Girar izq."),(KeyLabel="girar dcha."),(KeyLabel="Mirar arriba"),(KeyLabel="Mirar abajo"),(KeyLabel="Centrar vista"),(KeyLabel="Armas"),(KeyLabel="Disparo"),(KeyLabel="Disparo-alt"),(KeyLabel="Arrojar arma"),(KeyLabel="Mejor arma"),(KeyLabel="Arma siguiente"),(KeyLabel="Arma anterior"),(KeyLabel="⁄ltima arma"),(KeyLabel="SelecciÛn de arma"),(KeyLabel="Superarma"),(KeyLabel="CaÒÛn protector"),(KeyLabel="Rifle de asalto"),(KeyLabel="Biorifle"),(KeyLabel="Rifle de choque"),(KeyLabel="Enlazadora"),(KeyLabel="CaÒÛn autom·tico"),(KeyLabel="CaÒÛn antiaÈreo"),(KeyLabel="Lanzacohetes"),(KeyLabel="Arma elÈctrica"),(KeyLabel="Transportador"),(KeyLabel="ComunicaciÛn"),(KeyLabel="Decir"),(KeyLabel="Decir al equipo"),(KeyLabel="Men˙ de voz"),(KeyLabel="Burlas"),(KeyLabel="Baile pÈlvico"),(KeyLabel="Azote de culo"),(KeyLabel="Rajar garganta"),(KeyLabel="Hud"),(KeyLabel="Aumentar Hud"),(KeyLabel="Reducir Hud"),(KeyLabel="Miscel·nea"),(KeyLabel="Pausa"),(KeyLabel="Capturar pantalla"),(KeyLabel="Men˙"),(KeyLabel="Marcador"),(KeyLabel="Activar marcador"),(KeyLabel="Chat en juego"),(KeyLabel="Info de servidor"))
Labels=("Movimiento","Adelante","Atr·s","Lateral a la izq.","Lateral a la dch.","Saltar","Andar","Agazaparse","Activar despl. lateral","Mirar","Girar izq.","Girar dch.","Mirar arriba","Mirar abajo","Centrar vista","Armas","Disparo","Disparo-alt","Arrojar arma","Mejor arma","Arma siguiente","Arma anterior","⁄ltima arma","SelecciÛn de arma","Superarma","CaÒÛn protector","Rifle de asalto","Biorifle","Rifle de choque","Enlazadora","CaÒÛn autom·tico","CaÒÛn antiaÈreo","Lanzacohetes","Arma elÈctrica","Transportador","ComunicaciÛn","Decir","Decir al equipo","Men˙ de voz","Burlas","Baile pÈlvico","Azote de culo","Rajar garganta","Hud","Aumentar Hud","Reducir Hud","Miscel·nea","Pausa","Capturar pantalla","Men˙","Marcador","Activar marcador","Chat en juego","Info de servidor")
Header="["
Footer="] Realizar esta acciÛn"
KeyResetButton.Caption="REAJUSTE"
KeyResetButton.Hint="Reajustar las teclas a sus valores predeterminados"
KeyConfigAliasLabel.Caption="AcciÛn"
KeyConfigAliasLabel2.Caption="Tecla 1"
KeyConfigAliasLabel3.Caption="Tecla 2"
KeyConfigKeyList.Hint="Seleccionar control que configurar"

[Tab_DetailSettings]
DetailLevels[0]="MÌnimo"
DetailLevels[1]="Menor"
DetailLevels[2]="Bajo"
DetailLevels[3]="Normal"
DetailLevels[4]="Alto"
DetailLevels[5]="Mayor"
DetailLevels[6]="M·ximo"
DetailBlob.Caption="Usar sombras simples"
DetailBlob.Hint="Activar sombras simples. Recomendada para PC de bajo rendimiento."
DetailCharacterShadows.Caption="Sombras de personajes"
DetailCharacterShadows.Hint="Activar sombras de personajes."
DetailCoronas.Caption="Coronas"
DetailCoronas.Hint="Activar coronas."
DetailDecals.Caption="Transparencias"
DetailDecals.Hint="Activar efectos de disparos."
DetailDecoLayers.Caption="VegetaciÛn"
DetailDecoLayers.Hint="Activar cÈsped y otra vegetaciÛn."
DetailDetailTextures.Caption="Texturas detalladas"
DetailDetailTextures.Hint="Activar texturas detalladas."
DetailDynamicLighting.Caption="IluminaciÛn din·mica"
DetailDynamicLighting.Hint="Activar iluminaciÛn din·mica."
DetailProjectors.Caption="Proyecciones"
DetailProjectors.Hint="Activar proyecciones."
DetailTrilinear.Caption="Filtro trilineal"
DetailTrilinear.Hint="Activar filtro trilineal, recomendado para PC de gran rendimiento."
DetailActorDetail.Caption="Detalles de mundo"
DetailActorDetail.Hint="Cambia el nivel de detalles usado para geometrÌa opcional y efectos."
DetailCharacterDetail.Caption="Detalles de los personajes"
DetailCharacterDetail.Hint="Cambia la cantidad de detalles de personaje que se va a procesar."
DetailDecalStay.Caption="Permanencia de transparencias"
DetailDecalStay.Hint="Cambia el tiempo que permanecen los efectos de los disparos."
DetailPhysics.Caption="Detalles fÌsicos"
DetailPhysics.Hint="Cambia el nivel de detalles fÌsicos en la simulaciÛn."
DetailWorldDetail.Caption="Detalle de texturas"
DetailWorldDetail.Hint="Cambia la cantidad de detalles del mundo que se va a procesar."

[Tab_GameSettings]
CrosshairNames[0]="Oculto"
CrosshairNames[1]="Cruz (1)"
CrosshairNames[2]="Cruz (2)"
CrosshairNames[3]="Cruz (3)"
CrosshairNames[4]="Cruz (4)"
CrosshairNames[5]="Cruz (5)"
CrosshairNames[6]="Punto"
CrosshairNames[7]="Puntero"
CrosshairNames[8]="TrÌada (1)"
CrosshairNames[9]="TrÌada (1)"
CrosshairNames[10]="TrÌada (1)"
CrosshairNames[11]="Corchete (1)"
CrosshairNames[12]="Corchete (1)"
CrosshairNames[13]="CÌrculo (1)"
CrosshairNames[14]="CÌrculo (2)"
GameHudCrossHairALabel.Caption="Opacidad:"
GameHudCrossHairBLabel.Caption="Azul:"
GameHudCrossHairGLabel.Caption="Verde :"
GameHudCrossHairRLabel.Caption="Rojo:"
GameHudCrossHairA.Hint="Cambia el color del punto de mira."
GameHudCrossHairB.Hint="Cambia el color del punto de mira."
GameHudCrossHairG.Hint="Cambia el color del punto de mira."
GameHudCrossHairR.Hint="Cambia el color del punto de mira."
GameAutoAim.Caption="Apuntar autom·ticamente"
GameAutoAim.Hint="Activa esta opciÛn para que el juego te ayude a apuntar (no disponible en multijugador)."
GameDeathMsgs.Caption="No mostrar mensajes de muerte"
GameDeathMsgs.Hint="Apagar los mensajes de muertes de consola."
GameDodging.Caption="Esquivar"
GameDodging.Hint="Desactiva esta opciÛn para anular los movimientos especiales de esquiva."
GameReduceGore.Caption="Reducir violencia"
GameReduceGore.Hint="Activa esta opciÛn para reducir la cantidad de sangre y entraÒas que se mostrar·."
GameScreenFlashes.Caption="Destello en pantalla"
GameScreenFlashes.Hint="Desactiva esta opciÛn para anular los destellos en pantalla cuando recibes daÒo."
GameWeaponBob.Caption="Sacudida de arma"
GameWeaponBob.Hint="Evita que el arma se desvÌe arriba y abajo mientras te mueves."
GameCrossHair.Caption="Punto de mira"
GameCrossHair.Hint="°Selecciona tu punto de mira!"

[Tab_HudSettings]
CrosshairNames[0]="Oculto"
CrosshairNames[1]="Cruz (1)"
CrosshairNames[2]="Cruz (2)"
CrosshairNames[3]="Cruz (3)"
CrosshairNames[4]="Cruz (4)"
CrosshairNames[5]="Cruz (5)"
CrosshairNames[6]="Punto"
CrosshairNames[7]="Puntero"
CrosshairNames[8]="TrÌada (1)"
CrosshairNames[9]="TrÌada (1)"
CrosshairNames[10]="TrÌada (1)"
CrosshairNames[11]="Corchete (1)"
CrosshairNames[12]="Corchete (1)"
CrosshairNames[13]="CÌrculo (1)"
CrosshairNames[14]="CÌrculo (2)"
GameHudOpacityLabel.Caption="Opacidad de HUD"
GameHudScaleLabel.Caption="Escala del HUD"
GameHudOpacity.Hint="Cambia el nivel de opacidad del HUD."
GameHudScale.Hint="Cambia el nivel de opacidad del HUD."
GameHudShowEnemyNames.Caption="Mostrar nombre de enemigos"
GameHudShowPersonalInfo.Caption="Mostrar informaciÛn personal"
GameHudShowPortraits.Caption="Mostrar retratos"
GameHudShowScore.Caption="Mostrar tanteo"
GameHudShowWeaponBar.Caption="Mostrar barra de arma"
GameHudShowWeaponInfo.Caption="Mostrar informaciÛn de arma"
GameHudVisible.Caption="Ocultar HUD"
GameHudVisible.Hint="Esta opciÛn activa/desactiva el HUD."
GameHudMessageCount.Caption="VisualizaciÛn m·x. de chat"
GameHudMessageOffset.Caption="TamaÒo de fuentes de mensajes"
GameHudMessageScale.Caption="TamaÒo de fuentes de chat"

[Tab_IABombingRun]
GoalScoreText="LÌmite de puntuaciÛn"

[Tab_IACaptureTheFlag]
GoalScoreText="LÌmite de capturas"

[Tab_IADeathMatch]
GoalScoreText="LÌmite de abatidos"
IARulesAutoAdjustSkill.Caption="Auto ajustar habilidad de bots"
IARulesAutoAdjustSkill.Hint="Cuando se activa, los bots ajustar·n sus habilidades a las tuyas"

[Tab_IADoubleDomination]
GoalScoreText="LÌmite de puntuaciÛn"

[Tab_InstantActionBaseRules]
PercentText="porcentaje"
IARulesFriendlyFireLabel.Caption="Fuego amigo"
IARulesGameSpeedLabel.Caption="Vel. juego"
IARulesFriendlyFireSlider.Hint="Esta opciÛn controla cu·nto daÒo le haces a tus compaÒeros de equipo."
IARulesGameSpeedSlider.Hint="Esta opciÛn controla la velocidad de juego."
IARulesAllowWeaponThrow.Caption="Permitir arrojar armas"
IARulesAllowWeaponThrow.Hint="Cuando se selecciona, los jugadores tendr·n la habilidad de arrojar su arma actual."
IARulesBrightSkins.Caption="Pieles brillantes"
IARulesBrightSkins.Hint="Cuando se selecciona, el servidor har· que las pieles sean m·s brillantes de lo habitual."
IARulesTranslocator.Caption="Incluir transportador"
IARulesTranslocator.Hint="Activa esta opciÛn para permitir transportadores."
IARulesWeaponStay.Caption="Permanencia de armas"
IARulesWeaponStay.Hint="Si se activa, las armas siempre estar·n listas para recogerse."
IARulesGoalScore.Caption="Tanteo"
IARulesGoalScore.Hint="El juego acabar· cuando se alcance este lÌmite."
IARulesMaxLives.Caption="Vidas m·ximas"
IARulesMaxLives.Hint="Si este valor es diferente a 0, solo reaparecer·s ese n˙mero de veces."
IARulesTimeLimit.Caption="LÌmiteTpo."
IARulesTimeLimit.Hint="La partida terminar· despuÈs de esta cantidad de minutos de juego."

[Tab_InstantActionMain]
DifficultyLevels[0]="Novato"
DifficultyLevels[1]="Normal"
DifficultyLevels[2]="Experto"
DifficultyLevels[3]="Virtuoso"
DifficultyLevels[4]="Adepto"
DifficultyLevels[5]="Maestro"
DifficultyLevels[6]="Inhumano"
DifficultyLevels[7]="SemidiÛs"
MessageNoInfo="°No hay informaciÛn disponible!"
IAMain_MapAuthor.Caption="Probando"
IAMain_MapName.Caption="Probando"
IAMain_MapPlayers.Caption="Mejor para 4-8 jugadores"
IAMain_MapList.Hint="Selecciona el mapa a jugar"
IAMain_UseCustomBots.Caption="Usar bots personalizados"
IAMain_UseCustomBots.Hint="Cuando se activa, puedes usar la pestaÒa de bots para escoger los bots con los que jugar."
IAMain_UseMapBots.Caption="Usar n˙mero de bots del mapa"
IAMain_UseMapBots.Hint="Cuando se activa, se usa el n˙mero de bots recomendado para el mapa."
IAMain_BotSkill.Caption="Habilidad de bot"
IAMain_BotSkill.Hint="Escoge la habilidad de los bots con los que deseas jugar."
IAMain_GameType.Caption="Tipo de juego:"
IAMain_GameType.Hint="Selecciona el tipo de juego que deseas."
IAMain_BotCount.Caption="N˙mero de bots"
IAMain_BotCount.Hint="Escoge el n˙mero de bots con los que deseas jugar."

[Tab_MultiplayerHostMain]
MessageNoInfo="°No hay informaciÛn disponible!"
MPHostListAdd.Caption="AÒadir"
MPHostListAdd.Hint="AÒadir este mapa a la lista de mapas."
MPHostListAll.Caption="AÒad. todos"
MPHostListAll.Hint="AÒadir todos los mapas a la lista de mapas."
MPHostListClear.Caption="Elim. todos"
MPHostListClear.Hint="Quitar todos los mapas de lista de mapas"
MPHostListDown.Caption="Abajo"
MPHostListDown.Hint="Mover mapa abajo en la lista de mapas"
MPHostListRemove.Caption="Eliminar"
MPHostListRemove.Hint="Quitar este mapa de lista de mapas"
MPHostListUp.Caption="Arriba"
MPHostListUp.Hint="Subir mapa en la lista de mapas"
IAMain_MapAuthor.Caption="Probando"
IAMain_MapPlayers.Caption="Mejor para 4-8 jugadores"
MPHostMapName.Caption="Probando"
MPHostListCurMapList.Hint="Seleccionar mapa en el que jugar"
MPHostListFullMapList.Hint="Seleccionar mapa en el que jugar"
MPHost_GameType.Caption="Tipo de juego:"
MPHost_GameType.Hint="Selecciona el tipo de juego que deseas."

[Tab_NetworkSettings]
NetSpeedText[0]="MÛdem"
NetSpeedText[1]="RDSI"
NetSpeedText[2]="Cable/ADSL"
NetSpeedText[3]="LAN/T1"
StatsURL="http://ut2003stats.epicgames.com/"
EpicIDMsg="Tu id exclusiva es:"
ViewOnlineStats.Caption="Ver estadÌsticas"
ViewOnlineStats.Hint="Hacer clic para ir al sitio web de estadÌsticas de Unreal."
EpicID.Caption="Tu id exclusiva es:"
InvalidWarning.Caption="El nombre de usuario o contraseÒa son inv·lidos. El nombre de usuario debe tener al menos 4 caracteres de largo y la contraseÒa debe tener al menos 6."
OnlineStatDesc.Caption="EstadÌsticas generales de UT2003"
NetworkDynamicNetspeed.Caption="Velocidad de conexiÛn din·mica"
NetworkDynamicNetspeed.Hint="Ajusta la velocidad de red en las conexiones lentas."
OnlineTrackStats.Caption="Seguimiento estadÌsticas"
OnlineTrackStats.Hint="Activa esta opciÛn para unirte al sistema de clasificaciones online."
OnlineNetSpeed.Caption="ConexiÛn"
OnlineNetSpeed.Hint="øVelocidad de tu conexiÛn?"
OnlineStatsName.Caption="Nombre de usuario de EstadÌsticas"
OnlineStatsName.Hint="°Selecciona un nombre para identificar tus estadÌsticas!"
OnlineStatsPW.Caption="ContraseÒa de estadÌsticas"
OnlineStatsPW.Hint="°Selecciona una contraseÒa para asegurar tus estadÌsticas!"

[Tab_PlayerSettings]
HandNames[0]="Derecha"
HandNames[1]="Oculto"
HandNames[2]="Izquierda"
HandNames[3]="Centrar"
TeamNames[0]="Roj"
TeamNames[1]="Azul"
ShowBioCaption="Bio"
Show3DViewCaption="Vista 3D"
Player3DView.Caption="Vista 3D"
Player3DView.Hint="Cambiar entre vista 3D y biografÌa de personaje."
PlayerOGG.Caption="Lista de m˙sica"
PlayerOGG.Hint="Configura tu lista de m˙sica OGG."
PlayerCharList.Hint="Cambia el personaje con el que juegas."
PlayerSmallWeap.Caption="Armas pequeÒas"
PlayerSmallWeap.Hint="Hace que tu arma en primera persona sea m·s pequeÒa."
PlayerHand.Caption="Armas"
PlayerHand.Hint="Cambia que tu arma sea visible."
PlayerTeam.Caption="Equipo preferido"
PlayerTeam.Hint="Cambia el equipo en el que jugar·s por defecto."
PlayerName.Caption="Nombre"
PlayerName.Hint="Cambia el apodo con el que juegas"
PlayerFOV.Caption="CV predeterminado"
PlayerFOV.Hint="Este valor cambiar· tu campo visual."

[Tab_SPProfileLoad]
Difficulties[0]="Novato"
Difficulties[1]="Normal"
Difficulties[2]="Experto"
Difficulties[3]="Virtuoso"
Difficulties[4]="Adepto"
Difficulties[5]="Maestro"
Difficulties[6]="Inhumano"
Difficulties[7]="SemidiÛs"
DeleteMessage="Est·s a punto de borrar el perfil de '%prof%'||øSeguro que quieres borrar este perfil?"
btnDelete.Caption="BORRAR PERFIL"
btnDelete.Hint="Borrar perfil seleccionado actualmente"
btnLoad.Caption="CARGAR PERFIL"
btnLoad.Hint="Cargar el perfil seleccionado"
btnNew.Caption="NUEVO PERFIL"
btnNew.Hint="Ir al men˙ de creaciÛn de perfil"
imagePlayerSkin.Hint="Seleccionar la apariencia de tu personaje"
imageTeamSymbol.Hint="Seleccionar el escudo de tu equipo"
SPPLLblProfiles.Caption="LISTAS DE PERFILES"
SPPLLblStats.Caption="ESTADÕSTICAS DE PERFILES"
lboxProfile.Hint="Seleccionar perfil"
moebDeaths.Caption="Muertes:"
moebDeaths.Hint="N˙mero de veces que este personaje ha muerto"
moebDifficulty.Caption="Dificultad:"
moebDifficulty.Hint="Õndice de dificultad de este torneo"
moebGoals.Caption="Tantos:"
moebGoals.Hint="N˙mero de tantos anotados por este personaje"
moebKills.Caption="Abatidos:"
moebKills.Hint="N˙mero de enemigos abatidos por este personaje"
moebMatches.Caption="Encuentros:"
moebMatches.Hint="N˙mero de encuentros jugados por este personaje"
moebPlayerName.Caption="Nombre de jugador:"
moebPlayerName.Hint="Nombre de tu jugador"
moebTeamName.Caption="Nombre de equipo:"
moebTeamName.Hint="El nombre de tu equipo"
moebWins.Caption="Victorias:"
moebWins.Hint="N˙mero de encuentros ganados por este personaje"

[Tab_SPProfileNew]
DefaultName="Jugador"
DefaultTeamName="Equipo"
Err_ProfileExists="°El perfil %prof% ya existe!"
Err_CantCreateProfile="Fallo al crear perfil."
btnBack.Caption="VOLVER"
btnBack.Hint="Volver al men˙ anterior"
btnDefaults.Caption="RESTABLECER PRED."
btnDefaults.Hint="Devuelve este perfil a sus valores predeterminados"
btnSaveProfile.Caption="CREAR PERFIL"
btnSaveProfile.Hint="Crear un perfil con estos ajustes"
clistPlayerSkins.Hint="Apariencia de tu personaje, usa el cursor para cambiar"
btnNextSkin.Hint="Seleccionar nueva apariencia de personaje"
btnNextSymbol.Hint="Seleccionar nuevo escudo de equipo"
btnPrevSkin.Hint="Seleccionar nueva apariencia de personaje"
btnPrevSymbol.Hint="Seleccionar nuevo escudo de equipo"
ilTeamSymbols.Hint="El escudo de tu equipo; usa las teclas de cursor para cambiar"
lblCharacter.Caption="Seleccionar|Personaje"
lblTeamSymbol.Caption="Seleccionar|Escudo del equipo"
mocbDifficulty.Caption="Dificultad:"
mocbDifficulty.Hint="Personalizar desafÌo"
moebPlayerName.Caption="Nombre de jugador:"
moebPlayerName.Hint="Nombre de tu jugador"
moebTeamName.Caption="Nombre de equipo:"
moebTeamName.Hint="El nombre de tu equipo"

[Tab_SPRoster]
MessageNoInfo="No hay informaciÛn disponible."
PostStatsMessage="EstadÌsticas"
SPRosterCharList.Hint="Escoge un compaÒero de equipo para jugar el siguiente encuentro"
cboMate1.Hint="Establece la posiciÛn de inicio: cambia con men˙ de voz durante el encuentro"
cboMate2.Hint="Establece la posiciÛn de inicio: cambia con men˙ de voz durante el encuentro"
cboMate3.Hint="Establece la posiciÛn de inicio: cambia con men˙ de voz durante el encuentro"
cboMate4.Hint="Establece la posiciÛn de inicio: cambia con men˙ de voz durante el encuentro"
btnMate1.Hint="Asigna el miembro del equipo seleccionado a esta plantilla"
btnMate2.Hint="Asigna el miembro del equipo seleccionado a esta plantilla"
btnMate3.Hint="Asigna el miembro del equipo seleccionado a esta plantilla"
btnMate4.Hint="Asigna el miembro del equipo seleccionado a esta plantilla"
SPMatchData.Caption="No hay perfil de juego => No hay datos de encuentro"
lblMate1.Caption="Nombre"
lblMate2.Caption="Nombre"
lblMate3.Caption="Nombre"
lblMate4.Caption="Nombre"
lblNA1.Caption="RANURA NO DISPONIBLE"
lblNA2.Caption="RANURA NO DISPONIBLE"
lblNA3.Caption="RANURA NO DISPONIBLE"
lblNA4.Caption="RANURA NO DISPONIBLE"